(set-logic QF_UF)
(declare-fun A0 () Bool)
(declare-fun A1 () Bool)
(declare-fun A2 () Bool)
(declare-fun A3 () Bool)
(declare-fun A4 () Bool)
(declare-fun A5 () Bool)
(declare-fun A6 () Bool)
(declare-fun A7 () Bool)
(declare-fun A8 () Bool)
(declare-fun A9 () Bool)
(declare-fun A10 () Bool)
(declare-fun A11 () Bool)
(declare-fun A13 () Bool)
(declare-fun A14 () Bool)
(declare-fun A15 () Bool)
(declare-fun A16 () Bool)
(declare-fun A17 () Bool)
(declare-fun A18 () Bool)
(declare-fun A19 () Bool)
(declare-fun A20 () Bool)
(declare-fun A21 () Bool)
(declare-fun A22 () Bool)
(declare-fun A23 () Bool)
(declare-fun A24 () Bool)
(assert (let ((.def_0 (not A11))) (let ((.def_1 (and .def_0 A7))) (let ((.def_2 (and A9 A13))) (let ((.def_3 (not .def_2))) (let ((.def_4 (or .def_3 .def_1))) (let ((.def_5 (not .def_4))) (let ((.def_6 (or A6 A2))) (let ((.def_7 (not .def_6))) (let ((.def_8 (not A4))) (let ((.def_9 (and .def_8 A3))) (let ((.def_10 (or .def_9 .def_7))) (let ((.def_11 (or .def_10 .def_5))) (let ((.def_12 (or A11 A0))) (let ((.def_13 (not A8))) (let ((.def_14 (or A8 .def_13))) (let ((.def_15 (not .def_14))) (let ((.def_16 (or .def_15 .def_12))) (let ((.def_17 (not .def_16))) (let ((.def_18 (or A18 A16))) (let ((.def_19 (not .def_18))) (let ((.def_20 (not A0))) (let ((.def_21 (= .def_20 A6))) (let ((.def_22 (not .def_21))) (let ((.def_23 (and .def_22 .def_19))) (let ((.def_24 (= .def_23 .def_17))) (let ((.def_25 (or .def_24 .def_11))) (let ((.def_26 (not .def_25))) (let ((.def_27 (or .def_13 A19))) (let ((.def_28 (not .def_27))) (let ((.def_29 (not A17))) (let ((.def_30 (and A13 .def_29))) (let ((.def_31 (and .def_30 .def_28))) (let ((.def_32 (not A7))) (let ((.def_33 (and A21 .def_32))) (let ((.def_34 (not .def_33))) (let ((.def_35 (not A20))) (let ((.def_36 (= A16 .def_35))) (let ((.def_37 (not .def_36))) (let ((.def_38 (and .def_37 .def_34))) (let ((.def_39 (not .def_38))) (let ((.def_40 (and .def_39 .def_31))) (let ((.def_41 (not .def_40))) (let ((.def_42 (not A19))) (let ((.def_43 (not A10))) (let ((.def_44 (or .def_43 .def_42))) (let ((.def_45 (not .def_44))) (let ((.def_46 (not A13))) (let ((.def_47 (or .def_46 A18))) (let ((.def_48 (or .def_47 .def_45))) (let ((.def_49 (or A1 A1))) (let ((.def_50 (not .def_49))) (let ((.def_51 (not A21))) (let ((.def_52 (or .def_51 A17))) (let ((.def_53 (not .def_52))) (let ((.def_54 (or .def_53 .def_50))) (let ((.def_55 (not .def_54))) (let ((.def_56 (or .def_55 .def_48))) (let ((.def_57 (and .def_56 .def_41))) (let ((.def_58 (and .def_57 .def_26))) (let ((.def_59 (not .def_58))) (let ((.def_60 (not A18))) (let ((.def_61 (= .def_60 A7))) (let ((.def_62 (and .def_32 .def_51))) (let ((.def_63 (not .def_62))) (let ((.def_64 (and .def_63 .def_61))) (let ((.def_65 (not .def_64))) (let ((.def_66 (not A23))) (let ((.def_67 (and A4 .def_66))) (let ((.def_68 (not A14))) (let ((.def_69 (or .def_68 A2))) (let ((.def_70 (not .def_69))) (let ((.def_71 (or .def_70 .def_67))) (let ((.def_72 (not .def_71))) (let ((.def_73 (and .def_72 .def_65))) (let ((.def_74 (not .def_73))) (let ((.def_75 (and A0 A22))) (let ((.def_76 (not A22))) (let ((.def_77 (not A5))) (let ((.def_78 (= .def_77 .def_76))) (let ((.def_79 (or .def_78 .def_75))) (let ((.def_80 (not .def_79))) (let ((.def_81 (not A16))) (let ((.def_82 (or A22 .def_81))) (let ((.def_83 (not A24))) (let ((.def_84 (and A5 .def_83))) (let ((.def_85 (not .def_84))) (let ((.def_86 (and .def_85 .def_82))) (let ((.def_87 (not .def_86))) (let ((.def_88 (and .def_87 .def_80))) (let ((.def_89 (not .def_88))) (let ((.def_90 (and .def_89 .def_74))) (let ((.def_91 (and .def_83 A10))) (let ((.def_92 (= .def_1 .def_91))) (let ((.def_93 (or A23 A3))) (let ((.def_94 (and .def_68 .def_8))) (let ((.def_95 (not .def_94))) (let ((.def_96 (or .def_95 .def_93))) (let ((.def_97 (not .def_96))) (let ((.def_98 (or .def_97 .def_92))) (let ((.def_99 (= A23 .def_76))) (let ((.def_100 (not A9))) (let ((.def_101 (and .def_100 A14))) (let ((.def_102 (not .def_101))) (let ((.def_103 (and .def_102 .def_99))) (let ((.def_104 (not .def_103))) (let ((.def_105 (not A15))) (let ((.def_106 (and A4 .def_105))) (let ((.def_107 (or .def_76 A1))) (let ((.def_108 (or .def_107 .def_106))) (let ((.def_109 (not .def_108))) (let ((.def_110 (or .def_109 .def_104))) (let ((.def_111 (or .def_110 .def_98))) (let ((.def_112 (and .def_111 .def_90))) (let ((.def_113 (= .def_112 .def_59))) .def_113)))))))))))))))))))))))))))))))))))))))))))))))))))))))))))))))))))))))))))))))))))))))))))))))))))))))))))))))))))
(check-sat)
